s td 91 8 98
b 1 1 2 15
b 2 13 14 28
b 3 71 85 86
b 4 84 97 98
b 5 2 3 15 16
b 6 12 13 27 28
b 7 3 4 18 33 48 63 78 93
b 8 4 5 18 33 48 63 78 93
b 9 5 18 20 33 48 63 78 93
b 10 5 20 33 35 48 63 78 93
b 11 5 20 35 48 50 63 78 93
b 12 5 20 35 50 63 65 78 93
b 13 5 7 20 35 50 65 78 93
b 14 5 6 7 20
b 15 7 20 22 35 50 65 78 93
b 16 7 22 35 37 50 65 78 93
b 17 7 22 37 50 52 65 78 93
b 18 7 22 37 52 65 78 80 93
b 19 7 22 37 52 65 67 80 93
b 20 7 9 22 37 52 67 80 93
b 21 7 8 9 22
b 22 9 22 24 37 52 67 80 93
b 23 9 24 37 39 52 67 80 93
b 24 9 24 39 52 54 67 80 93
b 25 9 11 24 39 54 67 80 93
b 26 9 10 11 24
b 27 11 24 26 39 54 67 80 93
b 28 11 26 39 41 54 67 80 93
b 29 11 26 41 42 54 67 80 93
b 30 11 26 27 41 42
b 31 11 12 26 27 42
b 32 12 27 28 42
b 33 41 42 54 67 80 93 95
b 34 41 42 54 56 67 80 95
b 35 41 54 56 67 69 80 95
b 36 41 54 55 56 69
b 37 54 56 67 69 80 82 95
b 38 54 67 68 69 82
b 39 56 69 82 95 97
b 40 56 69 82 83 97
b 41 56 69 70 83 97
b 42 82 95 96 97
b 43 67 80 81 82 95
b 44 80 93 94 95
b 45 26 39 40 41 54
b 46 11 24 25 26 39
b 47 39 52 53 54 67
b 48 24 37 38 39 52
b 49 9 22 23 24 37
b 50 52 65 66 67 80
b 51 65 78 79 80 93
b 52 37 50 51 52 65
b 53 22 35 36 37 50
b 54 7 20 21 22 35
b 55 50 63 64 65 78
b 56 35 48 49 50 63
b 57 20 33 34 35 48
b 58 5 18 19 20 33
b 59 3 18 33 48 63 78 91 93
b 60 3 18 33 48 63 76 78 91
b 61 3 18 33 48 61 63 76 91
b 62 3 18 33 46 48 61 76 91
b 63 3 18 33 46 61 76 89 91
b 64 3 18 33 46 61 74 76 89
b 65 3 18 33 46 59 61 74 89
b 66 3 18 31 33 46 59 74 89
b 67 3 18 31 44 46 59 74 89
b 68 3 18 29 31 44 59 74 89
b 69 3 16 18 29 31 44
b 70 3 15 16 29
b 71 3 16 17 18 31
b 72 16 29 30 31 44
b 73 29 44 57 59 74 89
b 74 29 43 44 57
b 75 44 57 59 72 74 89
b 76 44 57 58 59 72
b 77 57 59 72 74 87 89
b 78 59 72 73 74 87
b 79 57 72 86 87
b 80 74 87 88 89
b 81 31 44 45 46 59
b 82 18 31 32 33 46
b 83 46 59 60 61 74
b 84 61 74 75 76 89
b 85 76 89 90 91
b 86 33 46 47 48 61
b 87 48 61 62 63 76
b 88 63 76 77 78 91
b 89 78 91 92 93
b 90 57 71 72 86
b 91 70 83 84 97
1 5
2 6
3 90
4 91
5 70
6 32
7 8
7 59
8 9
9 10
9 58
10 11
10 57
11 12
11 56
12 13
12 55
13 14
13 15
15 16
15 54
16 17
16 53
17 18
17 52
18 19
18 51
19 20
19 50
20 21
20 22
22 23
22 49
23 24
23 48
24 25
24 47
25 26
25 27
27 28
27 46
28 29
28 45
29 30
29 33
30 31
31 32
33 34
33 44
34 35
35 36
35 37
37 38
37 39
37 43
39 40
39 42
40 41
41 91
59 60
59 89
60 61
60 88
61 62
61 87
62 63
62 86
63 64
63 85
64 65
64 84
65 66
65 83
66 67
66 82
67 68
67 81
68 69
68 73
69 70
69 71
69 72
73 74
73 75
75 76
75 77
77 78
77 79
77 80
79 90
